\ This file has been generated by DOcplex
\ ENCODING=ISO-8859-1
\Problem name: MCLP9_un_c_5x5-2

Minimize
 obj: - 75 y_0 - 79 y_1 - 79 y_2 - 79 y_3 - 79 y_4 - 78 y_5 - 79 y_6 - 79 y_7
      - 79 y_8 - 79 y_9 - 75 y_10 - 79 y_11 - 79 y_12 - 79 y_13 - 79 y_14
      - 79 y_15 - 79 y_16 - 79 y_17 - 79 y_18 - 79 y_19 - 79 y_20 - 76 y_21
      - 79 y_22 - 77 y_23 - 79 y_24 - 560 x_6 - 560 x_7 - 480 x_21
      + 80 c1a_1_int_slack_0 + 80 c1a_2_int_slack_0 + 80 c1a_5_int_slack_0
      + 80 c1a_6_int_slack_0 + 80 c1a_6_int_slack_1 + 80 c1a_7_int_slack_0
      + 80 c1a_7_int_slack_1 + 80 c1a_8_int_slack_0 + 80 c1a_11_int_slack_0
      + 80 c1a_12_int_slack_0 + 80 c1a_16_int_slack_0 + 80 c1a_20_int_slack_0
      + 80 c1a_21_int_slack_0 + 80 c1a_22_int_slack_0 + [ 80 y_0^2 + 80 y_1^2
      + 160 y_1*x_6 - 160 y_1*c1a_1_int_slack_0 + 80 y_2^2 + 160 y_2*x_7
      - 160 y_2*c1a_2_int_slack_0 + 80 y_3^2 + 80 y_4^2 + 80 y_5^2 + 160 y_5*x_6
      - 160 y_5*c1a_5_int_slack_0 + 80 y_6^2 + 160 y_6*x_6 + 160 y_6*x_7
      - 160 y_6*c1a_6_int_slack_0 - 160 y_6*c1a_6_int_slack_1 + 80 y_7^2
      + 160 y_7*x_6 + 160 y_7*x_7 - 160 y_7*c1a_7_int_slack_0
      - 160 y_7*c1a_7_int_slack_1 + 80 y_8^2 + 160 y_8*x_7
      - 160 y_8*c1a_8_int_slack_0 + 80 y_9^2 + 80 y_10^2 + 80 y_11^2
      + 160 y_11*x_6 - 160 y_11*c1a_11_int_slack_0 + 80 y_12^2 + 160 y_12*x_7
      - 160 y_12*c1a_12_int_slack_0 + 80 y_13^2 + 80 y_14^2 + 80 y_15^2
      + 80 y_16^2 + 160 y_16*x_21 - 160 y_16*c1a_16_int_slack_0 + 80 y_17^2
      + 80 y_18^2 + 80 y_19^2 + 80 y_20^2 + 160 y_20*x_21
      - 160 y_20*c1a_20_int_slack_0 + 80 y_21^2 + 160 y_21*x_21
      - 160 y_21*c1a_21_int_slack_0 + 80 y_22^2 + 160 y_22*x_21
      - 160 y_22*c1a_22_int_slack_0 + 80 y_23^2 + 80 y_24^2 + 480 x_6^2
      + 480 x_6*x_7 + 160 x_6*x_21 - 160 x_6*c1a_1_int_slack_0
      - 160 x_6*c1a_5_int_slack_0 - 160 x_6*c1a_6_int_slack_0
      - 160 x_6*c1a_6_int_slack_1 - 160 x_6*c1a_7_int_slack_0
      - 160 x_6*c1a_7_int_slack_1 - 160 x_6*c1a_11_int_slack_0 + 480 x_7^2
      + 160 x_7*x_21 - 160 x_7*c1a_2_int_slack_0 - 160 x_7*c1a_6_int_slack_0
      - 160 x_7*c1a_6_int_slack_1 - 160 x_7*c1a_7_int_slack_0
      - 160 x_7*c1a_7_int_slack_1 - 160 x_7*c1a_8_int_slack_0
      - 160 x_7*c1a_12_int_slack_0 + 400 x_21^2 - 160 x_21*c1a_16_int_slack_0
      - 160 x_21*c1a_20_int_slack_0 - 160 x_21*c1a_21_int_slack_0
      - 160 x_21*c1a_22_int_slack_0 + 80 c1a_1_int_slack_0^2
      + 80 c1a_2_int_slack_0^2 + 80 c1a_5_int_slack_0^2 + 80 c1a_6_int_slack_0^2
      + 160 c1a_6_int_slack_0*c1a_6_int_slack_1 + 80 c1a_6_int_slack_1^2
      + 80 c1a_7_int_slack_0^2 + 160 c1a_7_int_slack_0*c1a_7_int_slack_1
      + 80 c1a_7_int_slack_1^2 + 80 c1a_8_int_slack_0^2
      + 80 c1a_11_int_slack_0^2 + 80 c1a_12_int_slack_0^2
      + 80 c1a_16_int_slack_0^2 + 80 c1a_20_int_slack_0^2
      + 80 c1a_21_int_slack_0^2 + 80 c1a_22_int_slack_0^2 ]/2 + 1160
Subject To

Bounds
 0 <= y_0 <= 1
 0 <= y_1 <= 1
 0 <= y_2 <= 1
 0 <= y_3 <= 1
 0 <= y_4 <= 1
 0 <= y_5 <= 1
 0 <= y_6 <= 1
 0 <= y_7 <= 1
 0 <= y_8 <= 1
 0 <= y_9 <= 1
 0 <= y_10 <= 1
 0 <= y_11 <= 1
 0 <= y_12 <= 1
 0 <= y_13 <= 1
 0 <= y_14 <= 1
 0 <= y_15 <= 1
 0 <= y_16 <= 1
 0 <= y_17 <= 1
 0 <= y_18 <= 1
 0 <= y_19 <= 1
 0 <= y_20 <= 1
 0 <= y_21 <= 1
 0 <= y_22 <= 1
 0 <= y_23 <= 1
 0 <= y_24 <= 1
 0 <= x_6 <= 1
 0 <= x_7 <= 1
 0 <= x_21 <= 1
 0 <= c1a_1_int_slack_0 <= 1
 0 <= c1a_2_int_slack_0 <= 1
 0 <= c1a_5_int_slack_0 <= 1
 0 <= c1a_6_int_slack_0 <= 1
 0 <= c1a_6_int_slack_1 <= 1
 0 <= c1a_7_int_slack_0 <= 1
 0 <= c1a_7_int_slack_1 <= 1
 0 <= c1a_8_int_slack_0 <= 1
 0 <= c1a_11_int_slack_0 <= 1
 0 <= c1a_12_int_slack_0 <= 1
 0 <= c1a_16_int_slack_0 <= 1
 0 <= c1a_20_int_slack_0 <= 1
 0 <= c1a_21_int_slack_0 <= 1
 0 <= c1a_22_int_slack_0 <= 1

Binaries
 y_0 y_1 y_2 y_3 y_4 y_5 y_6 y_7 y_8 y_9 y_10 y_11 y_12 y_13 y_14 y_15 y_16 y_17
 y_18 y_19 y_20 y_21 y_22 y_23 y_24 x_6 x_7 x_21 c1a_1_int_slack_0
 c1a_2_int_slack_0 c1a_5_int_slack_0 c1a_6_int_slack_0 c1a_6_int_slack_1
 c1a_7_int_slack_0 c1a_7_int_slack_1 c1a_8_int_slack_0 c1a_11_int_slack_0
 c1a_12_int_slack_0 c1a_16_int_slack_0 c1a_20_int_slack_0 c1a_21_int_slack_0
 c1a_22_int_slack_0
End
